p cnf 125 446
3 -1 0
3 -2 0
1 2 -3 0
-5 -3 0
-5 -4 0
3 4 5 0
-5 6 -7 0
5 -6 -7 0
-5 -6 7 0
5 6 7 0
-8 5 0
-8 -5 0
9 7 0
9 8 0
-7 -8 -9 0
-4 10 -11 0
4 -10 -11 0
-4 -10 11 0
4 10 11 0
-4 11 -12 0
4 -11 -12 0
-4 -11 12 0
4 11 12 0
-9 -12 -13 0
9 12 -13 0
-9 12 13 0
9 -12 13 0
15 -8 0
15 5 0
8 -5 -15 0
-6 5 -16 0
6 -5 -16 0
-6 -5 16 0
6 5 16 0
-17 -15 0
-17 -16 0
15 16 17 0
14 17 -18 0
-14 -17 -18 0
14 -17 18 0
-14 17 18 0
14 -16 -19 0
-14 16 -19 0
14 16 19 0
-14 -16 19 0
21 19 0
21 20 0
-19 -20 -21 0
-22 -18 0
-22 -21 0
18 21 22 0
24 -23 0
24 14 0
23 -14 -24 0
-25 24 0
-25 -8 0
-24 8 25 0
-26 -4 0
-26 25 0
4 -25 26 0
26 4 -27 0
-26 -4 -27 0
26 -4 27 0
-26 4 27 0
27 3 -28 0
-27 -3 -28 0
27 -3 28 0
-27 3 28 0
29 -22 0
29 -28 0
22 28 -29 0
-30 6 -31 0
30 -6 -31 0
-30 -6 31 0
30 6 31 0
-32 -31 0
-32 4 0
31 -4 32 0
34 1 0
34 17 0
-1 -17 -34 0
34 2 -35 0
-34 -2 -35 0
34 -2 35 0
-34 2 35 0
36 33 0
36 -35 0
-33 35 -36 0
37 -32 0
37 36 0
32 -36 -37 0
-39 3 0
-39 -38 0
-3 38 39 0
40 -39 0
40 10 0
39 -10 -40 0
-41 17 0
-41 -40 0
-17 40 41 0
42 -41 0
42 -19 0
41 19 -42 0
37 -42 -43 0
-37 42 -43 0
37 42 43 0
-37 -42 43 0
44 16 0
44 -14 0
-16 14 -44 0
-45 44 0
-45 15 0
-44 -15 45 0
-46 -45 0
-46 -20 0
45 20 46 0
43 46 -47 0
-43 -46 -47 0
43 -46 47 0
-43 46 47 0
29 47 -48 0
-29 -47 -48 0
29 -47 48 0
-29 47 48 0
-49 -23 0
-49 -19 0
23 19 49 0
-50 -45 0
-50 -11 0
45 11 50 0
52 51 0
52 -40 0
-51 40 -52 0
50 -52 -53 0
-50 52 -53 0
50 52 53 0
-50 -52 53 0
54 20 0
54 -24 0
-20 24 -54 0
-53 -54 -55 0
53 54 -55 0
-53 54 55 0
53 -54 55 0
49 55 -56 0
-49 -55 -56 0
49 -55 56 0
-49 55 56 0
48 -56 -57 0
-48 56 -57 0
48 56 57 0
-48 -56 57 0
58 35 0
58 -40 0
-35 40 -58 0
59 58 0
59 -42 0
-58 42 -59 0
57 59 -60 0
-57 -59 -60 0
57 -59 60 0
-57 59 60 0
-54 55 -61 0
54 -55 -61 0
-54 -55 61 0
54 55 61 0
62 -11 0
62 1 0
11 -1 -62 0
-63 -34 0
-63 -5 0
34 5 63 0
63 -8 -64 0
-63 8 -64 0
63 8 64 0
-63 -8 64 0
-65 62 0
-65 -64 0
-62 64 65 0
66 -61 0
66 -65 0
61 65 -66 0
-15 20 -67 0
15 -20 -67 0
-15 -20 67 0
15 20 67 0
-68 -67 0
-68 51 0
67 -51 68 0
-68 37 -69 0
68 -37 -69 0
-68 -37 69 0
68 37 69 0
70 -35 0
70 -35 0
35 -70 0
71 -70 0
71 -62 0
70 62 -71 0
-64 -71 -72 0
64 71 -72 0
-64 71 72 0
64 -71 72 0
-72 41 -73 0
72 -41 -73 0
-72 -41 73 0
72 41 73 0
74 -69 0
74 73 0
69 -73 -74 0
66 74 -75 0
-66 -74 -75 0
66 -74 75 0
-66 74 75 0
-41 14 -76 0
41 -14 -76 0
-41 -14 76 0
41 14 76 0
77 -62 0
77 76 0
62 -76 -77 0
-78 -41 0
-78 3 0
41 -3 78 0
79 -77 0
79 78 0
77 -78 -79 0
80 75 0
80 79 0
-75 -79 -80 0
81 60 0
81 -80 0
-60 80 -81 0
-82 -13 0
-82 -81 0
13 81 82 0
-83 -8 0
-83 -4 0
8 4 83 0
-83 -63 -84 0
83 63 -84 0
-83 63 84 0
83 -63 84 0
-85 67 0
-85 -84 0
-67 84 85 0
86 85 0
86 -10 0
-85 10 -86 0
-87 86 0
-87 8 0
-86 -8 87 0
82 87 -88 0
-82 -87 -88 0
82 -87 88 0
-82 87 88 0
-90 89 0
-90 24 0
-89 -24 90 0
36 32 -91 0
-36 -32 -91 0
36 -32 91 0
-36 32 91 0
92 -90 0
92 -91 0
90 91 -92 0
-6 -14 -93 0
6 14 -93 0
-6 14 93 0
6 -14 93 0
-94 93 0
-94 -71 0
-93 71 94 0
-95 -15 0
-95 78 0
15 -78 95 0
-96 -67 0
-96 -76 0
67 76 96 0
-95 96 -97 0
95 -96 -97 0
-95 -96 97 0
95 96 97 0
-98 94 0
-98 97 0
-94 -97 98 0
100 43 0
100 -16 0
-43 16 -100 0
-101 -99 0
-101 -100 0
99 100 101 0
-98 -101 -102 0
98 101 -102 0
-98 101 102 0
98 -101 102 0
103 92 0
103 102 0
-92 -102 -103 0
-17 -39 -104 0
17 39 -104 0
-17 39 104 0
17 -39 104 0
-105 62 0
-105 86 0
-62 -86 105 0
106 44 0
106 -93 0
-44 93 -106 0
-107 37 0
-107 -106 0
-37 106 107 0
108 105 0
108 107 0
-105 -107 -108 0
-109 -104 0
-109 108 0
104 -108 109 0
1 -23 -110 0
-1 23 -110 0
1 23 110 0
-1 -23 110 0
-111 30 0
-111 110 0
-30 -110 111 0
-112 51 0
-112 40 0
-51 -40 112 0
113 -112 0
113 -4 0
112 4 -113 0
114 111 0
114 113 0
-111 -113 -114 0
-63 -17 -115 0
63 17 -115 0
-63 17 115 0
63 -17 115 0
116 -115 0
116 -110 0
115 110 -116 0
-2 1 -117 0
2 -1 -117 0
-2 -1 117 0
2 1 117 0
-4 68 -118 0
4 -68 -118 0
-4 -68 118 0
4 68 118 0
-119 -118 0
-119 3 0
118 -3 119 0
120 -117 0
120 -119 0
117 119 -120 0
121 -116 0
121 120 0
116 -120 -121 0
114 121 -122 0
-114 -121 -122 0
114 -121 122 0
-114 121 122 0
-123 -109 0
-123 122 0
109 -122 123 0
-124 103 0
-124 -123 0
-103 123 124 0
-125 -88 0
-125 124 0
88 -124 125 0
-12 -111 -118 72 35 -101 0
-105 -121 -15 0
12 93 28 0
-55 10 0
42 -67 36 64 125 -103 0
-109 -107 -81 -23 106 11 0
-106 -122 -23 -85 79 0
-117 -69 21 -2 0
14 -63 114 8 0
-80 -33 0
57 -80 -63 43 18 0
30 -2 0
107 -105 -3 8 0
36 -34 -39 21 43 -15 0
-32 -90 -122 -95 -92 0
12 110 -29 -38 65 0
-122 -98 31 0
-37 87 -26 -29 -5 -122 0
62 113 -63 -120 103 -23 0
-3 -75 -18 -69 -1 -49 0
68 120 -55 -43 -41 0
-9 11 105 -85 60 0
89 -54 51 -36 -26 -117 0
-119 -62 56 -84 69 0
-19 -50 16 66 -40 -107 0
-107 -60 0
-60 85 -40 53 0
30 90 -115 -103 -84 0
69 -37 -67 0
34 45 0
114 -122 31 69 0
-59 87 73 -89 -64 0
55 -9 -65 0
18 23 0
-69 -118 -3 76 92 28 0
-83 -34 -71 94 58 0
84 92 0
-47 -63 87 -124 0
33 73 -2 42 -62 0
123 76 69 -56 -49 0
-27 -43 -16 -93 61 90 0
43 60 123 68 48 0
-102 65 16 -34 77 0
-68 58 -3 -36 22 0
91 -119 32 0
-59 88 63 55 0
43 -28 0
123 89 41 30 -122 0
-110 99 -53 71 72 -104 0
-96 -31 63 -30 -14 0
-70 121 6 -111 -20 0
63 -122 42 -106 0
20 123 0
-119 3 10 -7 45 0
-118 98 0
-106 68 62 -81 0
49 86 -14 0
93 -77 -102 0
108 -35 103 0
39 91 45 -101 44 -74 0
-119 70 -26 0
57 -10 -89 68 0
-45 89 -68 -109 0
-91 40 0
78 92 34 0
125 4 68 0
92 -109 125 -3 -12 18 0
107 95 36 -15 0
98 -120 93 91 6 95 0
119 -95 71 -22 -101 123 0
59 -116 -9 0
-46 96 98 -40 68 0
84 -12 -34 61 -102 0
36 -9 77 37 0
125 0
